p tdp 16 54
1 2
1 6
1 8
1 10
1 11
1 12
1 13
1 14
2 3
2 4
2 8
2 10
2 11
2 13
2 15
3 4
3 8
3 9
3 11
3 12
3 13
3 14
4 5
4 7
4 9
4 10
4 11
4 12
4 15
5 7
5 8
5 9
5 11
5 12
5 13
5 15
5 16
6 7
6 8
6 9
6 10
6 14
7 10
7 11
7 15
8 9
8 10
9 11
9 15
10 12
11 15
11 16
12 15
13 16
